unsat
(define-fun f ((x0 (BitVec 64))) (BitVec 64) (bvadd x0 #b0000000000000000000000000000000000000000000000000000000000000010))
(define-fun f ((x0 (BitVec 64))) (BitVec 64) (bvadd x0 #b0000000000000000000000000000000000000000000000000000000000000010))
int-arith5.sl running time : 0 m .083873867 s
times : .083873867
